c nombre: 7
c densidad: 0.1
p edges 90 409
e 1 11
e 1 20
e 1 29
e 1 49
e 1 58
e 1 64
e 1 65
e 1 86
e 1 87
e 2 15
e 2 16
e 2 23
e 2 32
e 2 39
e 2 42
e 2 43
e 2 53
e 2 57
e 2 85
e 3 29
e 3 52
e 3 63
e 3 74
e 3 78
e 3 84
e 4 5
e 4 8
e 4 12
e 4 30
e 4 38
e 4 42
e 4 53
e 4 65
e 4 71
e 4 75
e 5 25
e 5 30
e 5 43
e 5 45
e 5 47
e 5 51
e 5 70
e 5 74
e 5 83
e 5 84
e 5 90
e 6 10
e 6 17
e 6 27
e 6 48
e 6 49
e 6 59
e 6 61
e 6 69
e 6 71
e 7 30
e 7 44
e 8 9
e 8 17
e 8 25
e 8 26
e 8 33
e 8 39
e 8 47
e 8 51
e 8 59
e 8 63
e 8 67
e 8 80
e 8 81
e 8 87
e 9 39
e 9 40
e 9 44
e 9 60
e 9 62
e 9 75
e 9 78
e 10 20
e 10 22
e 10 23
e 10 28
e 10 44
e 10 52
e 10 76
e 10 88
e 10 90
e 11 14
e 11 15
e 11 21
e 11 28
e 11 36
e 11 42
e 11 43
e 11 45
e 11 46
e 11 53
e 11 54
e 11 55
e 11 61
e 11 80
e 12 15
e 12 19
e 12 21
e 12 26
e 12 41
e 12 47
e 13 17
e 13 22
e 13 29
e 13 55
e 13 62
e 13 79
e 13 86
e 14 25
e 14 37
e 14 60
e 14 74
e 14 85
e 14 86
e 15 21
e 15 31
e 15 32
e 15 39
e 15 42
e 15 54
e 15 67
e 15 70
e 15 81
e 15 90
e 16 26
e 16 62
e 16 72
e 16 82
e 17 23
e 17 32
e 17 33
e 17 50
e 17 54
e 17 63
e 17 79
e 17 82
e 17 86
e 17 90
e 18 28
e 18 37
e 18 44
e 18 49
e 18 51
e 18 62
e 18 69
e 18 72
e 18 83
e 18 89
e 19 23
e 19 42
e 19 64
e 19 79
e 19 83
e 20 28
e 20 37
e 20 39
e 20 40
e 20 47
e 20 48
e 20 70
e 21 25
e 21 35
e 21 38
e 21 41
e 21 51
e 21 52
e 21 54
e 21 59
e 22 30
e 22 40
e 22 87
e 23 32
e 23 45
e 23 61
e 23 66
e 23 68
e 24 32
e 24 60
e 24 64
e 25 26
e 25 30
e 25 31
e 25 40
e 25 43
e 25 52
e 25 64
e 25 69
e 25 76
e 25 78
e 26 27
e 26 34
e 26 38
e 26 71
e 26 89
e 27 30
e 27 43
e 27 46
e 27 57
e 27 65
e 27 75
e 27 84
e 27 90
e 28 33
e 28 36
e 28 45
e 28 65
e 28 72
e 28 83
e 28 89
e 29 35
e 29 36
e 29 41
e 29 42
e 29 51
e 29 52
e 29 60
e 29 63
e 29 66
e 29 68
e 29 86
e 30 41
e 30 46
e 30 51
e 30 53
e 30 60
e 30 61
e 30 70
e 30 85
e 31 39
e 31 42
e 31 50
e 31 58
e 31 59
e 31 60
e 31 65
e 31 66
e 31 73
e 31 77
e 32 42
e 32 54
e 32 82
e 32 85
e 33 43
e 33 63
e 33 65
e 33 72
e 33 83
e 33 86
e 34 59
e 34 64
e 34 65
e 34 73
e 34 79
e 34 81
e 35 51
e 35 80
e 36 37
e 36 46
e 36 47
e 36 54
e 36 57
e 36 71
e 36 83
e 37 39
e 37 44
e 37 54
e 37 56
e 37 57
e 37 64
e 37 67
e 37 70
e 37 79
e 38 55
e 38 68
e 38 73
e 39 43
e 39 45
e 39 51
e 39 60
e 39 62
e 39 65
e 39 76
e 40 44
e 40 56
e 40 62
e 40 73
e 40 86
e 41 45
e 41 68
e 41 70
e 41 77
e 41 78
e 41 89
e 42 49
e 42 53
e 42 57
e 42 62
e 42 81
e 43 47
e 43 69
e 43 71
e 43 75
e 43 80
e 43 85
e 44 54
e 44 90
e 46 49
e 46 51
e 46 53
e 46 55
e 46 64
e 46 67
e 47 79
e 47 87
e 48 58
e 48 60
e 49 64
e 49 68
e 49 76
e 49 77
e 49 83
e 49 87
e 50 77
e 50 80
e 51 57
e 51 65
e 51 67
e 51 73
e 51 75
e 51 81
e 51 88
e 52 56
e 52 57
e 52 67
e 53 54
e 53 58
e 53 61
e 53 88
e 54 59
e 54 68
e 55 69
e 55 71
e 56 58
e 56 59
e 56 73
e 57 64
e 57 72
e 58 80
e 59 75
e 59 79
e 60 62
e 60 69
e 60 79
e 60 87
e 60 88
e 61 69
e 61 77
e 61 79
e 62 74
e 62 79
e 62 82
e 62 83
e 62 84
e 63 65
e 63 69
e 64 66
e 64 83
e 64 87
e 65 72
e 65 89
e 66 72
e 66 74
e 66 75
e 66 82
e 67 68
e 67 74
e 67 75
e 67 87
e 68 71
e 68 73
e 68 86
e 69 82
e 70 72
e 70 73
e 70 76
e 70 77
e 70 87
e 73 79
e 73 81
e 73 83
e 73 85
e 73 87
e 74 77
e 74 82
e 75 77
e 75 83
e 76 83
e 77 90
e 79 80
e 80 81
e 80 90
e 85 90
e 87 88
